# Objective value = 5942.82
I_0_0 875
I_0_1 1213
I_0_2 1143
I_0_3 1015
I_0_4 1073
I_0_5 940
I_0_6 1278
I_1_0 182
I_1_1 91
I_1_2 0
I_1_3 1.8199999999999997e+02
I_1_4 9.0999999999999972e+01
I_1_5 182
I_1_6 9.0999999999999929e+01
I_2_0 75
I_2_1 0
I_2_2 75
I_2_3 0
I_2_4 75
I_2_5 75
I_2_6 0
I_3_0 130
I_3_1 65
I_3_2 1.3000000000000003e+02
I_3_3 6.5000000000000028e+01
I_3_4 130
I_3_5 6.5000000000000028e+01
I_3_6 2.3092638912203256e-14
I_4_0 64
I_4_1 0
I_4_2 64
I_4_3 64
I_4_4 0
I_4_5 64
I_4_6 0
I_5_0 86
I_5_1 43
I_5_2 0
I_5_3 86
I_5_4 43
I_5_5 8.5999999999999986e+01
I_5_6 4.2999999999999986e+01
q_1_0 0
q_1_1 0
q_1_2 273
q_1_3 0
q_1_4 1.8200000000000003e+02
q_1_5 0
q_2_0 0
q_2_1 150
q_2_2 0
q_2_3 150
q_2_4 75
q_2_5 0
q_3_0 0
q_3_1 1.2999999999999997e+02
q_3_2 0
q_3_3 130
q_3_4 1.4210854715202004e-14
q_3_5 0
q_4_0 0
q_4_1 128
q_4_2 64
q_4_3 0
q_4_4 128
q_4_5 0
q_5_0 0
q_5_1 0
q_5_2 129
q_5_3 0
q_5_4 86
q_5_5 0
y_0_0 0
y_0_1 1
y_0_2 1
y_0_3 1
y_0_4 1
y_0_5 0
y_1_0 0
y_1_1 0
y_1_2 9.9999999999999989e-01
y_1_3 0
y_1_4 1
y_1_5 0
y_2_0 0
y_2_1 1
y_2_2 0
y_2_3 1
y_2_4 1
y_2_5 0
y_3_0 0
y_3_1 9.9999999999999978e-01
y_3_2 0
y_3_3 1
y_3_4 5.5511151231257827e-17
y_3_5 0
y_4_0 0
y_4_1 1
y_4_2 1
y_4_3 0
y_4_4 1
y_4_5 0
y_5_0 0
y_5_1 0
y_5_2 1
y_5_3 0
y_5_4 1
y_5_5 0
x_0_1_0 0
x_0_1_1 0
x_0_1_2 0
x_0_1_3 0
x_0_1_4 0
x_0_1_5 0
x_0_2_0 0
x_0_2_1 1
x_0_2_2 0
x_0_2_3 1
x_0_2_4 1
x_0_2_5 0
x_0_3_0 0
x_0_3_1 9.9999999999999978e-01
x_0_3_2 0
x_0_3_3 1
x_0_3_4 1.1102230246251565e-16
x_0_3_5 0
x_0_4_0 0
x_0_4_1 0
x_0_4_2 1
x_0_4_3 0
x_0_4_4 1
x_0_4_5 0
x_0_5_0 0
x_0_5_1 0
x_0_5_2 1
x_0_5_3 0
x_0_5_4 0
x_0_5_5 0
x_1_2_0 0
x_1_2_1 0
x_1_2_2 0
x_1_2_3 0
x_1_2_4 0
x_1_2_5 0
x_1_3_0 0
x_1_3_1 0
x_1_3_2 0
x_1_3_3 0
x_1_3_4 0
x_1_3_5 0
x_1_4_0 0
x_1_4_1 0
x_1_4_2 9.9999999999999989e-01
x_1_4_3 0
x_1_4_4 1
x_1_4_5 0
x_1_5_0 0
x_1_5_1 0
x_1_5_2 9.9999999999999989e-01
x_1_5_3 0
x_1_5_4 1
x_1_5_5 0
x_2_3_0 0
x_2_3_1 0
x_2_3_2 0
x_2_3_3 1
x_2_3_4 0
x_2_3_5 0
x_2_4_0 0
x_2_4_1 1
x_2_4_2 0
x_2_4_3 0
x_2_4_4 0
x_2_4_5 0
x_2_5_0 0
x_2_5_1 0
x_2_5_2 0
x_2_5_3 0
x_2_5_4 1
x_2_5_5 0
x_3_4_0 0
x_3_4_1 9.9999999999999978e-01
x_3_4_2 0
x_3_4_3 0
x_3_4_4 0
x_3_4_5 0
x_3_5_0 0
x_3_5_1 0
x_3_5_2 0
x_3_5_3 0
x_3_5_4 0
x_3_5_5 0
x_4_5_0 0
x_4_5_1 0
x_4_5_2 0
x_4_5_3 0
x_4_5_4 0
x_4_5_5 0
